Star-Searcher/search_planner/search_planner/utils/lkh_tsp_solver/resource/cluster.tsp
NAME : single_frontier
TYPE : ATSP
DIMENSION : 8
EDGE_WEIGHT_TYPE : EXPLICIT
EDGE_WEIGHT_FORMAT : FULL_MATRIX
EDGE_WEIGHT_SECTION
0 0 522 478 500 332 104 335 
0 0 559 522 501 388 26 175 
0 559 0 39 340 220 577 596 
0 522 39 0 303 183 540 559 
0 501 340 303 0 226 480 619 
0 388 220 183 226 0 406 425 
0 26 577 540 480 406 0 194 
0 175 596 559 619 425 194 0 
EOF